(declare-const threshold Real)
(declare-const income Real)
(declare-const taxable_amount Real)
(declare-const tax_rate Real)
(declare-const fee_bl Real)
(assert (= tax_rate 0.05695))
(assert (= threshold 4673))
(assert (= taxable_amount (ite (> income threshold) (- income threshold) 0)))
(assert (= fee_bl (* tax_rate taxable_amount)))